sat
((Atom_name "AAAAAA") (Atomic_Weight 1) (Atomic_Symbol "AA") (isNobelGas1 false) (isReactive1 false))
cvc5::CONSTANT = { Boolean type: 2, String type: 2, UNKNOWN_TYPE_CONSTANT: 1, integer type: 1 }
cvc5::TERM = { EQUAL: 1, GT: 2, REGEXP_RANGE: 1, REGEXP_STAR: 1, STRING_IN_REGEXP: 1, STRING_LENGTH: 1, STRING_SUBSTR: 1 }
cvc5::VARIABLE = { Boolean type: 1 }
driver::filename = atom.smt2
global::totalTime = 65ms
theory::arith::inferencesConflict = { ARITH_CONF_EQ: 1, ARITH_CONF_SIMPLEX: 2 }
theory::arith::inferencesLemma = { ARITH_ROW_IMPL: 1, ARITH_UNATE: 2 }
theory::strings::inferencesLemma = { STRINGS_CODE_INJ: 15, STRINGS_CODE_PROXY: 6, STRINGS_EXTF: 4, STRINGS_LEN_NORM: 3, STRINGS_REGISTER_TERM: 24, STRINGS_REGISTER_TERM_ATOMIC: 10, STRINGS_RE_UNFOLD_POS: 3 }
